Regular mesh centered at Gamma
0
Gamma
k1_k2_k3
